EDIFF = 1E-7
EDIFFG = -0.01
IBRION = 2
ISIF = 3
ISMEAR =  -5
LORBIT = 11
NSW = 100
SIGMA  =  0.01
