EDIFF = 1E-7
EDIFFG = -0.01
NELMIN = 20
ICHARG = 11
LORBIT = 11
ISMEAR =  0
NBANDS = 16
SIGMA  =  0.01
