EDIFF = 1E-7
EDIFFG = -0.01
NELMIN = 20
ISMEAR =  0
LWANNIER90_RUN = .TRUE.
NBANDS = 16
SIGMA  =  0.01
