AEXX = 0.25
ALGO = ALL
EDIFF = 1E-7
EDIFFG = -0.01
HFSCREEN = 0.2
ISMEAR =  0
LDIAG = .TRUE. 
LHFCALC = .TRUE.
LWANNIER90_RUN = .TRUE.
NBANDS = 16
NELMIN = 20
NKRED = 2
SIGMA  =  0.01
TIME = 0.4
