
 50
line
reciprocal
  0.50000  0.50000  0.50000    1 #L
  0.00000  0.00000  0.00000    1 #G

  0.00000  0.00000  0.00000    1 #G
  0.00000  0.50000  0.50000    1 #X

  0.00000  0.50000  0.50000    1 #X
  0.50000  0.25000  0.75000    1 #W

  0.50000  0.25000  0.75000    1 #W
  0.00000  0.00000  0.00000    1 #G
